1 0 1 0
3 0 1 8
3 1 0 13
2 0 2 0
2 1 3 5
2 2 5 9
5 0 1 13
2 3 0 18
5 1 3 16
0 0 2 5
0 1 0 27
1 1 2 8
4 0 2 13
5 2 5 19
3 2 2 22
4 1 1 22
1 2 4 13
4 2 4 25
2 4 1 27
5 3 0 30
3 3 3 27
1 3 5 28
0 2 1 30
1 4 0 40
2 5 4 30
4 3 5 38
0 3 3 36
0 4 5 43
3 4 4 37
4 4 0 50
5 4 4 45
3 5 5 46
0 5 4 49
1 5 3 50
5 5 2 49
4 5 3 54
